c graph colorability of graph:
c random_regular_graph(5, 98).
c
c Generated with `cnfgen`
c (C) 2012-2016 Massimo Lauria <lauria.massimo@gmail.com>
c https://massimolauria.github.io/cnfgen
c
p cnf 294 1127
1 2 3 0
-1 -2 0
-1 -3 0
-2 -3 0
4 5 6 0
-4 -5 0
-4 -6 0
-5 -6 0
7 8 9 0
-7 -8 0
-7 -9 0
-8 -9 0
10 11 12 0
-10 -11 0
-10 -12 0
-11 -12 0
13 14 15 0
-13 -14 0
-13 -15 0
-14 -15 0
16 17 18 0
-16 -17 0
-16 -18 0
-17 -18 0
19 20 21 0
-19 -20 0
-19 -21 0
-20 -21 0
22 23 24 0
-22 -23 0
-22 -24 0
-23 -24 0
25 26 27 0
-25 -26 0
-25 -27 0
-26 -27 0
28 29 30 0
-28 -29 0
-28 -30 0
-29 -30 0
31 32 33 0
-31 -32 0
-31 -33 0
-32 -33 0
34 35 36 0
-34 -35 0
-34 -36 0
-35 -36 0
37 38 39 0
-37 -38 0
-37 -39 0
-38 -39 0
40 41 42 0
-40 -41 0
-40 -42 0
-41 -42 0
43 44 45 0
-43 -44 0
-43 -45 0
-44 -45 0
46 47 48 0
-46 -47 0
-46 -48 0
-47 -48 0
49 50 51 0
-49 -50 0
-49 -51 0
-50 -51 0
52 53 54 0
-52 -53 0
-52 -54 0
-53 -54 0
55 56 57 0
-55 -56 0
-55 -57 0
-56 -57 0
58 59 60 0
-58 -59 0
-58 -60 0
-59 -60 0
61 62 63 0
-61 -62 0
-61 -63 0
-62 -63 0
64 65 66 0
-64 -65 0
-64 -66 0
-65 -66 0
67 68 69 0
-67 -68 0
-67 -69 0
-68 -69 0
70 71 72 0
-70 -71 0
-70 -72 0
-71 -72 0
73 74 75 0
-73 -74 0
-73 -75 0
-74 -75 0
76 77 78 0
-76 -77 0
-76 -78 0
-77 -78 0
79 80 81 0
-79 -80 0
-79 -81 0
-80 -81 0
82 83 84 0
-82 -83 0
-82 -84 0
-83 -84 0
85 86 87 0
-85 -86 0
-85 -87 0
-86 -87 0
88 89 90 0
-88 -89 0
-88 -90 0
-89 -90 0
91 92 93 0
-91 -92 0
-91 -93 0
-92 -93 0
94 95 96 0
-94 -95 0
-94 -96 0
-95 -96 0
97 98 99 0
-97 -98 0
-97 -99 0
-98 -99 0
100 101 102 0
-100 -101 0
-100 -102 0
-101 -102 0
103 104 105 0
-103 -104 0
-103 -105 0
-104 -105 0
106 107 108 0
-106 -107 0
-106 -108 0
-107 -108 0
109 110 111 0
-109 -110 0
-109 -111 0
-110 -111 0
112 113 114 0
-112 -113 0
-112 -114 0
-113 -114 0
115 116 117 0
-115 -116 0
-115 -117 0
-116 -117 0
118 119 120 0
-118 -119 0
-118 -120 0
-119 -120 0
121 122 123 0
-121 -122 0
-121 -123 0
-122 -123 0
124 125 126 0
-124 -125 0
-124 -126 0
-125 -126 0
127 128 129 0
-127 -128 0
-127 -129 0
-128 -129 0
130 131 132 0
-130 -131 0
-130 -132 0
-131 -132 0
133 134 135 0
-133 -134 0
-133 -135 0
-134 -135 0
136 137 138 0
-136 -137 0
-136 -138 0
-137 -138 0
139 140 141 0
-139 -140 0
-139 -141 0
-140 -141 0
142 143 144 0
-142 -143 0
-142 -144 0
-143 -144 0
145 146 147 0
-145 -146 0
-145 -147 0
-146 -147 0
148 149 150 0
-148 -149 0
-148 -150 0
-149 -150 0
151 152 153 0
-151 -152 0
-151 -153 0
-152 -153 0
154 155 156 0
-154 -155 0
-154 -156 0
-155 -156 0
157 158 159 0
-157 -158 0
-157 -159 0
-158 -159 0
160 161 162 0
-160 -161 0
-160 -162 0
-161 -162 0
163 164 165 0
-163 -164 0
-163 -165 0
-164 -165 0
166 167 168 0
-166 -167 0
-166 -168 0
-167 -168 0
169 170 171 0
-169 -170 0
-169 -171 0
-170 -171 0
172 173 174 0
-172 -173 0
-172 -174 0
-173 -174 0
175 176 177 0
-175 -176 0
-175 -177 0
-176 -177 0
178 179 180 0
-178 -179 0
-178 -180 0
-179 -180 0
181 182 183 0
-181 -182 0
-181 -183 0
-182 -183 0
184 185 186 0
-184 -185 0
-184 -186 0
-185 -186 0
187 188 189 0
-187 -188 0
-187 -189 0
-188 -189 0
190 191 192 0
-190 -191 0
-190 -192 0
-191 -192 0
193 194 195 0
-193 -194 0
-193 -195 0
-194 -195 0
196 197 198 0
-196 -197 0
-196 -198 0
-197 -198 0
199 200 201 0
-199 -200 0
-199 -201 0
-200 -201 0
202 203 204 0
-202 -203 0
-202 -204 0
-203 -204 0
205 206 207 0
-205 -206 0
-205 -207 0
-206 -207 0
208 209 210 0
-208 -209 0
-208 -210 0
-209 -210 0
211 212 213 0
-211 -212 0
-211 -213 0
-212 -213 0
214 215 216 0
-214 -215 0
-214 -216 0
-215 -216 0
217 218 219 0
-217 -218 0
-217 -219 0
-218 -219 0
220 221 222 0
-220 -221 0
-220 -222 0
-221 -222 0
223 224 225 0
-223 -224 0
-223 -225 0
-224 -225 0
226 227 228 0
-226 -227 0
-226 -228 0
-227 -228 0
229 230 231 0
-229 -230 0
-229 -231 0
-230 -231 0
232 233 234 0
-232 -233 0
-232 -234 0
-233 -234 0
235 236 237 0
-235 -236 0
-235 -237 0
-236 -237 0
238 239 240 0
-238 -239 0
-238 -240 0
-239 -240 0
241 242 243 0
-241 -242 0
-241 -243 0
-242 -243 0
244 245 246 0
-244 -245 0
-244 -246 0
-245 -246 0
247 248 249 0
-247 -248 0
-247 -249 0
-248 -249 0
250 251 252 0
-250 -251 0
-250 -252 0
-251 -252 0
253 254 255 0
-253 -254 0
-253 -255 0
-254 -255 0
256 257 258 0
-256 -257 0
-256 -258 0
-257 -258 0
259 260 261 0
-259 -260 0
-259 -261 0
-260 -261 0
262 263 264 0
-262 -263 0
-262 -264 0
-263 -264 0
265 266 267 0
-265 -266 0
-265 -267 0
-266 -267 0
268 269 270 0
-268 -269 0
-268 -270 0
-269 -270 0
271 272 273 0
-271 -272 0
-271 -273 0
-272 -273 0
274 275 276 0
-274 -275 0
-274 -276 0
-275 -276 0
277 278 279 0
-277 -278 0
-277 -279 0
-278 -279 0
280 281 282 0
-280 -281 0
-280 -282 0
-281 -282 0
283 284 285 0
-283 -284 0
-283 -285 0
-284 -285 0
286 287 288 0
-286 -287 0
-286 -288 0
-287 -288 0
289 290 291 0
-289 -290 0
-289 -291 0
-290 -291 0
292 293 294 0
-292 -293 0
-292 -294 0
-293 -294 0
-1 -22 0
-2 -23 0
-3 -24 0
-1 -49 0
-2 -50 0
-3 -51 0
-1 -205 0
-2 -206 0
-3 -207 0
-1 -211 0
-2 -212 0
-3 -213 0
-1 -286 0
-2 -287 0
-3 -288 0
-4 -70 0
-5 -71 0
-6 -72 0
-4 -124 0
-5 -125 0
-6 -126 0
-4 -226 0
-5 -227 0
-6 -228 0
-4 -247 0
-5 -248 0
-6 -249 0
-4 -256 0
-5 -257 0
-6 -258 0
-7 -52 0
-8 -53 0
-9 -54 0
-7 -124 0
-8 -125 0
-9 -126 0
-7 -163 0
-8 -164 0
-9 -165 0
-7 -193 0
-8 -194 0
-9 -195 0
-7 -220 0
-8 -221 0
-9 -222 0
-10 -88 0
-11 -89 0
-12 -90 0
-10 -181 0
-11 -182 0
-12 -183 0
-10 -202 0
-11 -203 0
-12 -204 0
-10 -238 0
-11 -239 0
-12 -240 0
-10 -256 0
-11 -257 0
-12 -258 0
-13 -16 0
-14 -17 0
-15 -18 0
-13 -19 0
-14 -20 0
-15 -21 0
-13 -31 0
-14 -32 0
-15 -33 0
-13 -241 0
-14 -242 0
-15 -243 0
-13 -292 0
-14 -293 0
-15 -294 0
-16 -61 0
-17 -62 0
-18 -63 0
-16 -148 0
-17 -149 0
-18 -150 0
-16 -223 0
-17 -224 0
-18 -225 0
-16 -268 0
-17 -269 0
-18 -270 0
-19 -40 0
-20 -41 0
-21 -42 0
-19 -187 0
-20 -188 0
-21 -189 0
-19 -232 0
-20 -233 0
-21 -234 0
-19 -238 0
-20 -239 0
-21 -240 0
-22 -136 0
-23 -137 0
-24 -138 0
-22 -139 0
-23 -140 0
-24 -141 0
-22 -196 0
-23 -197 0
-24 -198 0
-22 -289 0
-23 -290 0
-24 -291 0
-25 -91 0
-26 -92 0
-27 -93 0
-25 -181 0
-26 -182 0
-27 -183 0
-25 -184 0
-26 -185 0
-27 -186 0
-25 -187 0
-26 -188 0
-27 -189 0
-25 -259 0
-26 -260 0
-27 -261 0
-28 -55 0
-29 -56 0
-30 -57 0
-28 -145 0
-29 -146 0
-30 -147 0
-28 -175 0
-29 -176 0
-30 -177 0
-28 -211 0
-29 -212 0
-30 -213 0
-28 -235 0
-29 -236 0
-30 -237 0
-31 -40 0
-32 -41 0
-33 -42 0
-31 -67 0
-32 -68 0
-33 -69 0
-31 -178 0
-32 -179 0
-33 -180 0
-31 -226 0
-32 -227 0
-33 -228 0
-34 -46 0
-35 -47 0
-36 -48 0
-34 -91 0
-35 -92 0
-36 -93 0
-34 -178 0
-35 -179 0
-36 -180 0
-34 -181 0
-35 -182 0
-36 -183 0
-34 -241 0
-35 -242 0
-36 -243 0
-37 -163 0
-38 -164 0
-39 -165 0
-37 -172 0
-38 -173 0
-39 -174 0
-37 -190 0
-38 -191 0
-39 -192 0
-37 -214 0
-38 -215 0
-39 -216 0
-37 -235 0
-38 -236 0
-39 -237 0
-40 -109 0
-41 -110 0
-42 -111 0
-40 -124 0
-41 -125 0
-42 -126 0
-40 -232 0
-41 -233 0
-42 -234 0
-43 -94 0
-44 -95 0
-45 -96 0
-43 -103 0
-44 -104 0
-45 -105 0
-43 -193 0
-44 -194 0
-45 -195 0
-43 -229 0
-44 -230 0
-45 -231 0
-43 -232 0
-44 -233 0
-45 -234 0
-46 -67 0
-47 -68 0
-48 -69 0
-46 -91 0
-47 -92 0
-48 -93 0
-46 -157 0
-47 -158 0
-48 -159 0
-46 -253 0
-47 -254 0
-48 -255 0
-49 -67 0
-50 -68 0
-51 -69 0
-49 -76 0
-50 -77 0
-51 -78 0
-49 -145 0
-50 -146 0
-51 -147 0
-49 -265 0
-50 -266 0
-51 -267 0
-52 -127 0
-53 -128 0
-54 -129 0
-52 -157 0
-53 -158 0
-54 -159 0
-52 -211 0
-53 -212 0
-54 -213 0
-52 -250 0
-53 -251 0
-54 -252 0
-55 -154 0
-56 -155 0
-57 -156 0
-55 -181 0
-56 -182 0
-57 -183 0
-55 -241 0
-56 -242 0
-57 -243 0
-55 -280 0
-56 -281 0
-57 -282 0
-58 -73 0
-59 -74 0
-60 -75 0
-58 -91 0
-59 -92 0
-60 -93 0
-58 -118 0
-59 -119 0
-60 -120 0
-58 -190 0
-59 -191 0
-60 -192 0
-58 -199 0
-59 -200 0
-60 -201 0
-61 -151 0
-62 -152 0
-63 -153 0
-61 -205 0
-62 -206 0
-63 -207 0
-61 -217 0
-62 -218 0
-63 -219 0
-61 -220 0
-62 -221 0
-63 -222 0
-64 -79 0
-65 -80 0
-66 -81 0
-64 -97 0
-65 -98 0
-66 -99 0
-64 -196 0
-65 -197 0
-66 -198 0
-64 -229 0
-65 -230 0
-66 -231 0
-64 -274 0
-65 -275 0
-66 -276 0
-67 -73 0
-68 -74 0
-69 -75 0
-67 -220 0
-68 -221 0
-69 -222 0
-70 -76 0
-71 -77 0
-72 -78 0
-70 -142 0
-71 -143 0
-72 -144 0
-70 -184 0
-71 -185 0
-72 -186 0
-70 -217 0
-71 -218 0
-72 -219 0
-73 -124 0
-74 -125 0
-75 -126 0
-73 -148 0
-74 -149 0
-75 -150 0
-73 -163 0
-74 -164 0
-75 -165 0
-76 -82 0
-77 -83 0
-78 -84 0
-76 -265 0
-77 -266 0
-78 -267 0
-76 -277 0
-77 -278 0
-78 -279 0
-79 -109 0
-80 -110 0
-81 -111 0
-79 -199 0
-80 -200 0
-81 -201 0
-79 -217 0
-80 -218 0
-81 -219 0
-79 -283 0
-80 -284 0
-81 -285 0
-82 -133 0
-83 -134 0
-84 -135 0
-82 -166 0
-83 -167 0
-84 -168 0
-82 -244 0
-83 -245 0
-84 -246 0
-82 -256 0
-83 -257 0
-84 -258 0
-85 -160 0
-86 -161 0
-87 -162 0
-85 -208 0
-86 -209 0
-87 -210 0
-85 -214 0
-86 -215 0
-87 -216 0
-85 -271 0
-86 -272 0
-87 -273 0
-85 -283 0
-86 -284 0
-87 -285 0
-88 -97 0
-89 -98 0
-90 -99 0
-88 -202 0
-89 -203 0
-90 -204 0
-88 -229 0
-89 -230 0
-90 -231 0
-88 -283 0
-89 -284 0
-90 -285 0
-91 -142 0
-92 -143 0
-93 -144 0
-94 -109 0
-95 -110 0
-96 -111 0
-94 -220 0
-95 -221 0
-96 -222 0
-94 -247 0
-95 -248 0
-96 -249 0
-94 -256 0
-95 -257 0
-96 -258 0
-97 -166 0
-98 -167 0
-99 -168 0
-97 -289 0
-98 -290 0
-99 -291 0
-97 -292 0
-98 -293 0
-99 -294 0
-100 -109 0
-101 -110 0
-102 -111 0
-100 -148 0
-101 -149 0
-102 -150 0
-100 -262 0
-101 -263 0
-102 -264 0
-100 -265 0
-101 -266 0
-102 -267 0
-100 -289 0
-101 -290 0
-102 -291 0
-103 -139 0
-104 -140 0
-105 -141 0
-103 -151 0
-104 -152 0
-105 -153 0
-103 -262 0
-104 -263 0
-105 -264 0
-103 -277 0
-104 -278 0
-105 -279 0
-106 -136 0
-107 -137 0
-108 -138 0
-106 -145 0
-107 -146 0
-108 -147 0
-106 -154 0
-107 -155 0
-108 -156 0
-106 -163 0
-107 -164 0
-108 -165 0
-106 -220 0
-107 -221 0
-108 -222 0
-109 -136 0
-110 -137 0
-111 -138 0
-112 -151 0
-113 -152 0
-114 -153 0
-112 -157 0
-113 -158 0
-114 -159 0
-112 -160 0
-113 -161 0
-114 -162 0
-112 -208 0
-113 -209 0
-114 -210 0
-112 -280 0
-113 -281 0
-114 -282 0
-115 -121 0
-116 -122 0
-117 -123 0
-115 -127 0
-116 -128 0
-117 -129 0
-115 -199 0
-116 -200 0
-117 -201 0
-115 -223 0
-116 -224 0
-117 -225 0
-115 -280 0
-116 -281 0
-117 -282 0
-118 -124 0
-119 -125 0
-120 -126 0
-118 -175 0
-119 -176 0
-120 -177 0
-118 -184 0
-119 -185 0
-120 -186 0
-118 -229 0
-119 -230 0
-120 -231 0
-121 -130 0
-122 -131 0
-123 -132 0
-121 -232 0
-122 -233 0
-123 -234 0
-121 -262 0
-122 -263 0
-123 -264 0
-121 -277 0
-122 -278 0
-123 -279 0
-127 -130 0
-128 -131 0
-129 -132 0
-127 -169 0
-128 -170 0
-129 -171 0
-127 -178 0
-128 -179 0
-129 -180 0
-130 -169 0
-131 -170 0
-132 -171 0
-130 -253 0
-131 -254 0
-132 -255 0
-130 -271 0
-131 -272 0
-132 -273 0
-133 -145 0
-134 -146 0
-135 -147 0
-133 -232 0
-134 -233 0
-135 -234 0
-133 -244 0
-134 -245 0
-135 -246 0
-133 -250 0
-134 -251 0
-135 -252 0
-136 -196 0
-137 -197 0
-138 -198 0
-136 -253 0
-137 -254 0
-138 -255 0
-139 -166 0
-140 -167 0
-141 -168 0
-139 -202 0
-140 -203 0
-141 -204 0
-139 -262 0
-140 -263 0
-141 -264 0
-142 -145 0
-143 -146 0
-144 -147 0
-142 -154 0
-143 -155 0
-144 -156 0
-142 -235 0
-143 -236 0
-144 -237 0
-148 -193 0
-149 -194 0
-150 -195 0
-148 -202 0
-149 -203 0
-150 -204 0
-151 -217 0
-152 -218 0
-153 -219 0
-151 -268 0
-152 -269 0
-153 -270 0
-154 -163 0
-155 -164 0
-156 -165 0
-154 -208 0
-155 -209 0
-156 -210 0
-157 -223 0
-158 -224 0
-159 -225 0
-157 -256 0
-158 -257 0
-159 -258 0
-160 -193 0
-161 -194 0
-162 -195 0
-160 -229 0
-161 -230 0
-162 -231 0
-160 -250 0
-161 -251 0
-162 -252 0
-166 -175 0
-167 -176 0
-168 -177 0
-166 -241 0
-167 -242 0
-168 -243 0
-169 -226 0
-170 -227 0
-171 -228 0
-169 -235 0
-170 -236 0
-171 -237 0
-169 -238 0
-170 -239 0
-171 -240 0
-172 -190 0
-173 -191 0
-174 -192 0
-172 -196 0
-173 -197 0
-174 -198 0
-172 -244 0
-173 -245 0
-174 -246 0
-172 -277 0
-173 -278 0
-174 -279 0
-175 -184 0
-176 -185 0
-177 -186 0
-175 -244 0
-176 -245 0
-177 -246 0
-178 -268 0
-179 -269 0
-180 -270 0
-178 -271 0
-179 -272 0
-180 -273 0
-181 -208 0
-182 -209 0
-183 -210 0
-184 -199 0
-185 -200 0
-186 -201 0
-187 -205 0
-188 -206 0
-189 -207 0
-187 -271 0
-188 -272 0
-189 -273 0
-187 -289 0
-188 -290 0
-189 -291 0
-190 -259 0
-191 -260 0
-192 -261 0
-190 -274 0
-191 -275 0
-192 -276 0
-193 -217 0
-194 -218 0
-195 -219 0
-196 -226 0
-197 -227 0
-198 -228 0
-199 -211 0
-200 -212 0
-201 -213 0
-202 -268 0
-203 -269 0
-204 -270 0
-205 -259 0
-206 -260 0
-207 -261 0
-205 -265 0
-206 -266 0
-207 -267 0
-208 -274 0
-209 -275 0
-210 -276 0
-211 -259 0
-212 -260 0
-213 -261 0
-214 -238 0
-215 -239 0
-216 -240 0
-214 -247 0
-215 -248 0
-216 -249 0
-214 -286 0
-215 -287 0
-216 -288 0
-223 -259 0
-224 -260 0
-225 -261 0
-223 -262 0
-224 -263 0
-225 -264 0
-226 -286 0
-227 -287 0
-228 -288 0
-235 -271 0
-236 -272 0
-237 -273 0
-238 -283 0
-239 -284 0
-240 -285 0
-241 -250 0
-242 -251 0
-243 -252 0
-244 -292 0
-245 -293 0
-246 -294 0
-247 -268 0
-248 -269 0
-249 -270 0
-247 -277 0
-248 -278 0
-249 -279 0
-250 -292 0
-251 -293 0
-252 -294 0
-253 -280 0
-254 -281 0
-255 -282 0
-253 -283 0
-254 -284 0
-255 -285 0
-265 -274 0
-266 -275 0
-267 -276 0
-274 -286 0
-275 -287 0
-276 -288 0
-280 -292 0
-281 -293 0
-282 -294 0
-286 -289 0
-287 -290 0
-288 -291 0
